row=6;
column=6;
left=[4, 0, 3, 0, 0, 0];
right=[0, 0, 1, 2, 0, 0];
top=[0, 3, 0, 0, 0, 0];
bottom=[2, 0, 0, 0, 0, 0];
Board=[|2,0,0,0,0,0|0,1,4,0,0,0|4,0,1,5,0,6|0,0,0,0,0,1|1,6,0,0,0,0|0,0,0,1,0,2|]